homework/2/sat_in/task3/01.cnf
p cnf 40 305
1 2 3 4 5 6 7 8 0
-1 -2 0
-1 -3 0
-1 -4 0
-1 -5 0
-1 -6 0
-1 -7 0
-1 -8 0
-2 -3 0
-2 -4 0
-2 -5 0
-2 -6 0
-2 -7 0
-2 -8 0
-3 -4 0
-3 -5 0
-3 -6 0
-3 -7 0
-3 -8 0
-4 -5 0
-4 -6 0
-4 -7 0
-4 -8 0
-5 -6 0
-5 -7 0
-5 -8 0
-6 -7 0
-6 -8 0
-7 -8 0
9 10 11 12 13 14 15 16 0
-9 -10 0
-9 -11 0
-9 -12 0
-9 -13 0
-9 -14 0
-9 -15 0
-9 -16 0
-10 -11 0
-10 -12 0
-10 -13 0
-10 -14 0
-10 -15 0
-10 -16 0
-11 -12 0
-11 -13 0
-11 -14 0
-11 -15 0
-11 -16 0
-12 -13 0
-12 -14 0
-12 -15 0
-12 -16 0
-13 -14 0
-13 -15 0
-13 -16 0
-14 -15 0
-14 -16 0
-15 -16 0
17 18 19 20 21 22 23 24 0
-17 -18 0
-17 -19 0
-17 -20 0
-17 -21 0
-17 -22 0
-17 -23 0
-17 -24 0
-18 -19 0
-18 -20 0
-18 -21 0
-18 -22 0
-18 -23 0
-18 -24 0
-19 -20 0
-19 -21 0
-19 -22 0
-19 -23 0
-19 -24 0
-20 -21 0
-20 -22 0
-20 -23 0
-20 -24 0
-21 -22 0
-21 -23 0
-21 -24 0
-22 -23 0
-22 -24 0
-23 -24 0
25 26 27 28 29 30 31 32 0
-25 -26 0
-25 -27 0
-25 -28 0
-25 -29 0
-25 -30 0
-25 -31 0
-25 -32 0
-26 -27 0
-26 -28 0
-26 -29 0
-26 -30 0
-26 -31 0
-26 -32 0
-27 -28 0
-27 -29 0
-27 -30 0
-27 -31 0
-27 -32 0
-28 -29 0
-28 -30 0
-28 -31 0
-28 -32 0
-29 -30 0
-29 -31 0
-29 -32 0
-30 -31 0
-30 -32 0
-31 -32 0
33 34 35 36 37 38 39 40 0
-33 -34 0
-33 -35 0
-33 -36 0
-33 -37 0
-33 -38 0
-33 -39 0
-33 -40 0
-34 -35 0
-34 -36 0
-34 -37 0
-34 -38 0
-34 -39 0
-34 -40 0
-35 -36 0
-35 -37 0
-35 -38 0
-35 -39 0
-35 -40 0
-36 -37 0
-36 -38 0
-36 -39 0
-36 -40 0
-37 -38 0
-37 -39 0
-37 -40 0
-38 -39 0
-38 -40 0
-39 -40 0
-1 -9 0
-1 -17 0
-1 -25 0
-1 -33 0
-9 -17 0
-9 -25 0
-9 -33 0
-17 -25 0
-17 -33 0
-25 -33 0
-2 -10 0
-2 -18 0
-2 -26 0
-2 -34 0
-10 -18 0
-10 -26 0
-10 -34 0
-18 -26 0
-18 -34 0
-26 -34 0
-3 -11 0
-3 -19 0
-3 -27 0
-3 -35 0
-11 -19 0
-11 -27 0
-11 -35 0
-19 -27 0
-19 -35 0
-27 -35 0
-4 -12 0
-4 -20 0
-4 -28 0
-4 -36 0
-12 -20 0
-12 -28 0
-12 -36 0
-20 -28 0
-20 -36 0
-28 -36 0
-5 -13 0
-5 -21 0
-5 -29 0
-5 -37 0
-13 -21 0
-13 -29 0
-13 -37 0
-21 -29 0
-21 -37 0
-29 -37 0
-6 -14 0
-6 -22 0
-6 -30 0
-6 -38 0
-14 -22 0
-14 -30 0
-14 -38 0
-22 -30 0
-22 -38 0
-30 -38 0
-7 -15 0
-7 -23 0
-7 -31 0
-7 -39 0
-15 -23 0
-15 -31 0
-15 -39 0
-23 -31 0
-23 -39 0
-31 -39 0
-8 -16 0
-8 -24 0
-8 -32 0
-8 -40 0
-16 -24 0
-16 -32 0
-16 -40 0
-24 -32 0
-24 -40 0
-32 -40 0
-1 -12 0
-9 -4 0
-1 -20 0
-17 -4 0
-1 -28 0
-25 -4 0
-1 -36 0
-33 -4 0
-9 -20 0
-17 -12 0
-9 -28 0
-25 -12 0
-9 -36 0
-33 -12 0
-17 -28 0
-25 -20 0
-17 -36 0
-33 -20 0
-25 -36 0
-33 -28 0
-1 -15 0
-9 -7 0
-1 -23 0
-17 -7 0
-1 -31 0
-25 -7 0
-1 -39 0
-33 -7 0
-9 -23 0
-17 -15 0
-9 -31 0
-25 -15 0
-9 -39 0
-33 -15 0
-17 -31 0
-25 -23 0
-17 -39 0
-33 -23 0
-25 -39 0
-33 -31 0
-2 -11 0
-10 -3 0
-2 -19 0
-18 -3 0
-2 -27 0
-26 -3 0
-2 -35 0
-34 -3 0
-10 -19 0
-18 -11 0
-10 -27 0
-26 -11 0
-10 -35 0
-34 -11 0
-18 -27 0
-26 -19 0
-18 -35 0
-34 -19 0
-26 -35 0
-34 -27 0
-2 -15 0
-10 -7 0
-2 -23 0
-18 -7 0
-2 -31 0
-26 -7 0
-2 -39 0
-34 -7 0
-10 -23 0
-18 -15 0
-10 -31 0
-26 -15 0
-10 -39 0
-34 -15 0
-18 -31 0
-26 -23 0
-18 -39 0
-34 -23 0
-26 -39 0
-34 -31 0
-2 -16 0
-10 -8 0
-2 -24 0
-18 -8 0
-2 -32 0
-26 -8 0
-2 -40 0
-34 -8 0
-10 -24 0
-18 -16 0
-10 -32 0
-26 -16 0
-10 -40 0
-34 -16 0
-18 -32 0
-26 -24 0
-18 -40 0
-34 -24 0
-26 -40 0
-34 -32 0
-3 -15 0
-11 -7 0
-3 -23 0
-19 -7 0
-3 -31 0
-27 -7 0
-3 -39 0
-35 -7 0
-11 -23 0
-19 -15 0
-11 -31 0
-27 -15 0
-11 -39 0
-35 -15 0
-19 -31 0
-27 -23 0
-19 -39 0
-35 -23 0
-27 -39 0
-35 -31 0
-4 -14 0
-12 -6 0
-4 -22 0
-20 -6 0
-4 -30 0
-28 -6 0
-4 -38 0
-36 -6 0
-12 -22 0
-20 -14 0
-12 -30 0
-28 -14 0
-12 -38 0
-36 -14 0
-20 -30 0
-28 -22 0
-20 -38 0
-36 -22 0
-28 -38 0
-36 -30 0
-5 -15 0
-13 -7 0
-5 -23 0
-21 -7 0
-5 -31 0
-29 -7 0
-5 -39 0
-37 -7 0
-13 -23 0
-21 -15 0
-13 -31 0
-29 -15 0
-13 -39 0
-37 -15 0
-21 -31 0
-29 -23 0
-21 -39 0
-37 -23 0
-29 -39 0
-37 -31 0
